data/rand/rand_027.gr
p tdp 15 72
1 2
1 3
1 5
1 7
1 8
1 9
1 11
1 13
1 14
2 4
2 6
2 7
2 9
2 11
2 13
2 14
2 15
3 5
3 6
3 7
3 8
3 9
3 10
3 11
3 14
3 15
4 5
4 6
4 7
4 8
4 12
4 14
4 15
5 7
5 10
5 12
5 13
5 14
6 8
6 9
6 11
6 12
6 14
6 15
7 8
7 10
7 13
7 14
7 15
8 9
8 10
8 11
8 12
8 13
8 14
8 15
9 10
9 14
10 11
10 12
10 13
10 14
10 15
11 13
11 14
11 15
12 13
12 14
12 15
13 14
13 15
14 15
