solutions/best/rand/rand_027.sol
12
0
1
5
2
4
15
15
3
6
8
6
6
10
13
14
